; benchmark generated from python API
(set-info :status unknown)
(declare-fun x_epoch () Int)
(declare-fun y_epoch () Int)
(declare-fun x_plus_epoch () Int)
(declare-fun x_plus_month () Int)
(declare-fun x_plus_year () Int)
(declare-fun x_plus_day () Int)
(declare-fun y_plus_epoch () Int)
(declare-fun y_plus_month () Int)
(declare-fun y_plus_year () Int)
(declare-fun y_plus_day () Int)
(assert
 (>= x_epoch (- 36584)))
(assert
 (<= x_epoch 36829))
(assert
 (>= y_epoch (- 36584)))
(assert
 (<= y_epoch 36829))
(assert
 (= x_epoch 7275))
(assert
 (= y_epoch 6910))
(assert
 (>= x_plus_epoch (- 36584)))
(assert
 (<= x_plus_epoch 36829))
(assert
 (let (($x434 (= x_plus_month 11)))
 (let (($x992 (= x_plus_month 9)))
 (let (($x635 (= x_plus_month 6)))
 (let (($x2268 (= x_plus_month 4)))
 (let ((?x3253 (ite (or $x2268 $x635 $x992 $x434) 30 31)))
 (let (($x3012 (= (mod x_plus_year 400) 0)))
 (let (($x656 (= (mod x_plus_year 4) 0)))
 (let (($x931 (or (and $x656 (and (distinct (mod x_plus_year 100) 0) true)) $x3012)))
 (let (($x547 (= x_plus_month 2)))
 (let (($x3147 (>= x_plus_day 1)))
 (let (($x435 (<= x_plus_month 12)))
 (let (($x2589 (>= x_plus_month 1)))
 (let (($x3589 (<= x_plus_year 2100)))
 (let (($x2817 (>= x_plus_year 1900)))
 (and $x2817 $x3589 $x2589 $x435 $x3147 (<= x_plus_day (ite $x547 (ite $x931 29 28) ?x3253))))))))))))))))))
(assert
 (let (($x3012 (= (mod x_plus_year 400) 0)))
 (let (($x656 (= (mod x_plus_year 4) 0)))
 (let (($x931 (or (and $x656 (and (distinct (mod x_plus_year 100) 0) true)) $x3012)))
 (let ((?x918 (ite (= 2 x_plus_month) (ite $x931 31 31) (ite (= 1 x_plus_month) (ite $x931 0 0) 0))))
 (let ((?x619 (ite (= 4 x_plus_month) (ite $x931 91 90) (ite (= 3 x_plus_month) (ite $x931 60 59) ?x918))))
 (let ((?x3155 (ite (= 6 x_plus_month) (ite $x931 152 151) (ite (= 5 x_plus_month) (ite $x931 121 120) ?x619))))
 (let ((?x1806 (ite (= 8 x_plus_month) (ite $x931 213 212) (ite (= 7 x_plus_month) (ite $x931 182 181) ?x3155))))
 (let ((?x812 (ite (= 10 x_plus_month) (ite $x931 274 273) (ite (= 9 x_plus_month) (ite $x931 244 243) ?x1806))))
 (let ((?x1399 (ite (= 12 x_plus_month) (ite $x931 335 334) (ite (= 11 x_plus_month) (ite $x931 305 304) ?x812))))
 (let ((?x884 (+ (* 365 (- x_plus_year 1)) (div (- x_plus_year 1) 4))))
 (let ((?x1223 (+ (- ?x884 (div (- x_plus_year 1) 100)) (div (- x_plus_year 1) 400))))
 (= x_plus_epoch (- (+ (+ ?x1223 ?x1399) (- x_plus_day 1)) 730179))))))))))))))
(assert
 (let ((?x530 (+ x_epoch 730179)))
 (let ((?x467 (mod ?x530 146097)))
 (let ((?x880 (div ?x467 36524)))
 (let ((?x518 (ite (<= 4 ?x880) 3 ?x880)))
 (let ((?x910 (- ?x467 (* ?x518 36524))))
 (let ((?x696 (mod ?x910 1461)))
 (let ((?x777 (div ?x696 365)))
 (let ((?x350 (ite (<= 4 ?x777) 3 ?x777)))
 (let ((?x641 (+ (+ (* (div ?x530 146097) 400) (* ?x518 100)) (* (div ?x910 1461) 4))))
 (let ((?x640 (+ (+ ?x641 ?x350) 1)))
 (let (($x352 (or (and (= (mod ?x640 4) 0) (and (distinct (mod ?x640 100) 0) true)) (= (mod ?x640 400) 0))))
 (let ((?x441 (- ?x696 (* ?x350 365))))
 (let ((?x705 (ite $x352 31 31)))
 (let (($x580 (>= ?x441 ?x705)))
 (let ((?x615 (ite $x580 (+ (- ?x441 ?x705) 1) (+ (- ?x441 (ite $x352 0 0)) 1))))
 (let ((?x451 (ite $x352 60 59)))
 (let (($x339 (>= ?x441 ?x451)))
 (let ((?x889 (ite $x352 91 90)))
 (let (($x266 (>= ?x441 ?x889)))
 (let ((?x524 (ite $x266 (+ (- ?x441 ?x889) 1) (ite $x339 (+ (- ?x441 ?x451) 1) ?x615))))
 (let ((?x758 (ite $x352 121 120)))
 (let (($x2982 (>= ?x441 ?x758)))
 (let ((?x675 (ite $x352 152 151)))
 (let (($x3136 (>= ?x441 ?x675)))
 (let ((?x586 (ite $x3136 (+ (- ?x441 ?x675) 1) (ite $x2982 (+ (- ?x441 ?x758) 1) ?x524))))
 (let ((?x2351 (ite $x352 182 181)))
 (let (($x2212 (>= ?x441 ?x2351)))
 (let ((?x1900 (ite $x352 213 212)))
 (let (($x459 (>= ?x441 ?x1900)))
 (let ((?x379 (ite $x459 (+ (- ?x441 ?x1900) 1) (ite $x2212 (+ (- ?x441 ?x2351) 1) ?x586))))
 (let ((?x779 (ite $x352 244 243)))
 (let (($x891 (>= ?x441 ?x779)))
 (let ((?x783 (ite $x352 274 273)))
 (let (($x521 (>= ?x441 ?x783)))
 (let ((?x938 (ite $x521 (+ (- ?x441 ?x783) 1) (ite $x891 (+ (- ?x441 ?x779) 1) ?x379))))
 (let ((?x865 (ite $x352 305 304)))
 (let (($x623 (>= ?x441 ?x865)))
 (let ((?x297 (ite $x352 335 334)))
 (let (($x693 (>= ?x441 ?x297)))
 (let ((?x688 (ite $x693 (+ (- ?x441 ?x297) 1) (ite $x623 (+ (- ?x441 ?x865) 1) ?x938))))
 (let ((?x800 (+ (* 0 12) 1)))
 (let ((?x856 (ite $x2982 5 (ite $x266 4 (ite $x339 3 (ite $x580 2 1))))))
 (let ((?x525 (ite $x891 9 (ite $x459 8 (ite $x2212 7 (ite $x3136 6 ?x856))))))
 (let ((?x578 (ite $x693 12 (ite $x623 11 (ite $x521 10 ?x525)))))
 (let ((?x2988 (+ ?x578 ?x800)))
 (let ((?x3495 (- ?x2988 1)))
 (let ((?x343 (+ (mod ?x3495 12) 1)))
 (let ((?x1963 (ite (or (= ?x343 4) (= ?x343 6) (= ?x343 9) (= ?x343 11)) 30 31)))
 (let (($x909 (and (= (mod (+ ?x640 (+ 0 (div ?x3495 12))) 4) 0) (and (distinct (mod (+ ?x640 (+ 0 (div ?x3495 12))) 100) 0) true))))
 (let (($x2168 (or $x909 (= (mod (+ ?x640 (+ 0 (div ?x3495 12))) 400) 0))))
 (let ((?x317 (ite (= ?x343 2) (ite $x2168 29 28) ?x1963)))
 (let (($x486 (> 1 ?x688)))
 (let ((?x469 (ite $x486 1 (ite (> ?x688 ?x317) ?x317 ?x688))))
 (let ((?x213 (ite (> 1 ?x469) 1 (ite (> ?x469 ?x317) ?x317 ?x469))))
 (let ((?x3297 (ite (= 2 ?x343) (ite $x2168 31 31) (ite (= 1 ?x343) (ite $x2168 0 0) 0))))
 (let ((?x3214 (ite (= 4 ?x343) (ite $x2168 91 90) (ite (= 3 ?x343) (ite $x2168 60 59) ?x3297))))
 (let ((?x327 (ite (= 6 ?x343) (ite $x2168 152 151) (ite (= 5 ?x343) (ite $x2168 121 120) ?x3214))))
 (let ((?x622 (ite (= 8 ?x343) (ite $x2168 213 212) (ite (= 7 ?x343) (ite $x2168 182 181) ?x327))))
 (let ((?x724 (ite (= 10 ?x343) (ite $x2168 274 273) (ite (= 9 ?x343) (ite $x2168 244 243) ?x622))))
 (let ((?x543 (ite (= 12 ?x343) (ite $x2168 335 334) (ite (= 11 ?x343) (ite $x2168 305 304) ?x724))))
 (let ((?x537 (+ (* 365 (- (+ ?x640 (+ 0 (div ?x3495 12))) 1)) (div (- (+ ?x640 (+ 0 (div ?x3495 12))) 1) 4))))
 (let ((?x689 (+ (- ?x537 (div (- (+ ?x640 (+ 0 (div ?x3495 12))) 1) 100)) (div (- (+ ?x640 (+ 0 (div ?x3495 12))) 1) 400))))
 (let ((?x493 (+ (+ (- (+ (+ ?x689 ?x543) (- ?x213 1)) 730179) 0) 730179)))
 (let ((?x874 (mod ?x493 146097)))
 (let ((?x2641 (div ?x874 36524)))
 (let ((?x1815 (ite (<= 4 ?x2641) 3 ?x2641)))
 (let ((?x3283 (- ?x874 (* ?x1815 36524))))
 (let ((?x455 (mod ?x3283 1461)))
 (let ((?x2508 (div ?x455 365)))
 (let ((?x372 (ite (<= 4 ?x2508) 3 ?x2508)))
 (let ((?x912 (+ (+ (* (div ?x493 146097) 400) (* ?x1815 100)) (* (div ?x3283 1461) 4))))
 (let ((?x585 (+ (+ ?x912 ?x372) 1)))
 (let ((?x3409 (+ 0 (div ?x3495 12))))
 (let ((?x251 (+ ?x640 ?x3409)))
 (let (($x2213 (= 0 0)))
 (let ((?x1205 (ite $x2213 ?x251 ?x585)))
 (= x_plus_year ?x1205))))))))))))))))))))))))))))))))))))))))))))))))))))))))))))))))))))))))))))))
(assert
 (let ((?x530 (+ x_epoch 730179)))
 (let ((?x467 (mod ?x530 146097)))
 (let ((?x880 (div ?x467 36524)))
 (let ((?x518 (ite (<= 4 ?x880) 3 ?x880)))
 (let ((?x910 (- ?x467 (* ?x518 36524))))
 (let ((?x696 (mod ?x910 1461)))
 (let ((?x777 (div ?x696 365)))
 (let ((?x350 (ite (<= 4 ?x777) 3 ?x777)))
 (let ((?x641 (+ (+ (* (div ?x530 146097) 400) (* ?x518 100)) (* (div ?x910 1461) 4))))
 (let ((?x640 (+ (+ ?x641 ?x350) 1)))
 (let (($x352 (or (and (= (mod ?x640 4) 0) (and (distinct (mod ?x640 100) 0) true)) (= (mod ?x640 400) 0))))
 (let ((?x441 (- ?x696 (* ?x350 365))))
 (let ((?x705 (ite $x352 31 31)))
 (let (($x580 (>= ?x441 ?x705)))
 (let ((?x615 (ite $x580 (+ (- ?x441 ?x705) 1) (+ (- ?x441 (ite $x352 0 0)) 1))))
 (let ((?x451 (ite $x352 60 59)))
 (let (($x339 (>= ?x441 ?x451)))
 (let ((?x889 (ite $x352 91 90)))
 (let (($x266 (>= ?x441 ?x889)))
 (let ((?x524 (ite $x266 (+ (- ?x441 ?x889) 1) (ite $x339 (+ (- ?x441 ?x451) 1) ?x615))))
 (let ((?x758 (ite $x352 121 120)))
 (let (($x2982 (>= ?x441 ?x758)))
 (let ((?x675 (ite $x352 152 151)))
 (let (($x3136 (>= ?x441 ?x675)))
 (let ((?x586 (ite $x3136 (+ (- ?x441 ?x675) 1) (ite $x2982 (+ (- ?x441 ?x758) 1) ?x524))))
 (let ((?x2351 (ite $x352 182 181)))
 (let (($x2212 (>= ?x441 ?x2351)))
 (let ((?x1900 (ite $x352 213 212)))
 (let (($x459 (>= ?x441 ?x1900)))
 (let ((?x379 (ite $x459 (+ (- ?x441 ?x1900) 1) (ite $x2212 (+ (- ?x441 ?x2351) 1) ?x586))))
 (let ((?x779 (ite $x352 244 243)))
 (let (($x891 (>= ?x441 ?x779)))
 (let ((?x783 (ite $x352 274 273)))
 (let (($x521 (>= ?x441 ?x783)))
 (let ((?x938 (ite $x521 (+ (- ?x441 ?x783) 1) (ite $x891 (+ (- ?x441 ?x779) 1) ?x379))))
 (let ((?x865 (ite $x352 305 304)))
 (let (($x623 (>= ?x441 ?x865)))
 (let ((?x297 (ite $x352 335 334)))
 (let (($x693 (>= ?x441 ?x297)))
 (let ((?x688 (ite $x693 (+ (- ?x441 ?x297) 1) (ite $x623 (+ (- ?x441 ?x865) 1) ?x938))))
 (let ((?x800 (+ (* 0 12) 1)))
 (let ((?x856 (ite $x2982 5 (ite $x266 4 (ite $x339 3 (ite $x580 2 1))))))
 (let ((?x525 (ite $x891 9 (ite $x459 8 (ite $x2212 7 (ite $x3136 6 ?x856))))))
 (let ((?x578 (ite $x693 12 (ite $x623 11 (ite $x521 10 ?x525)))))
 (let ((?x2988 (+ ?x578 ?x800)))
 (let ((?x3495 (- ?x2988 1)))
 (let ((?x343 (+ (mod ?x3495 12) 1)))
 (let ((?x1963 (ite (or (= ?x343 4) (= ?x343 6) (= ?x343 9) (= ?x343 11)) 30 31)))
 (let (($x909 (and (= (mod (+ ?x640 (+ 0 (div ?x3495 12))) 4) 0) (and (distinct (mod (+ ?x640 (+ 0 (div ?x3495 12))) 100) 0) true))))
 (let (($x2168 (or $x909 (= (mod (+ ?x640 (+ 0 (div ?x3495 12))) 400) 0))))
 (let ((?x317 (ite (= ?x343 2) (ite $x2168 29 28) ?x1963)))
 (let (($x486 (> 1 ?x688)))
 (let ((?x469 (ite $x486 1 (ite (> ?x688 ?x317) ?x317 ?x688))))
 (let ((?x213 (ite (> 1 ?x469) 1 (ite (> ?x469 ?x317) ?x317 ?x469))))
 (let ((?x3297 (ite (= 2 ?x343) (ite $x2168 31 31) (ite (= 1 ?x343) (ite $x2168 0 0) 0))))
 (let ((?x3214 (ite (= 4 ?x343) (ite $x2168 91 90) (ite (= 3 ?x343) (ite $x2168 60 59) ?x3297))))
 (let ((?x327 (ite (= 6 ?x343) (ite $x2168 152 151) (ite (= 5 ?x343) (ite $x2168 121 120) ?x3214))))
 (let ((?x622 (ite (= 8 ?x343) (ite $x2168 213 212) (ite (= 7 ?x343) (ite $x2168 182 181) ?x327))))
 (let ((?x724 (ite (= 10 ?x343) (ite $x2168 274 273) (ite (= 9 ?x343) (ite $x2168 244 243) ?x622))))
 (let ((?x543 (ite (= 12 ?x343) (ite $x2168 335 334) (ite (= 11 ?x343) (ite $x2168 305 304) ?x724))))
 (let ((?x537 (+ (* 365 (- (+ ?x640 (+ 0 (div ?x3495 12))) 1)) (div (- (+ ?x640 (+ 0 (div ?x3495 12))) 1) 4))))
 (let ((?x689 (+ (- ?x537 (div (- (+ ?x640 (+ 0 (div ?x3495 12))) 1) 100)) (div (- (+ ?x640 (+ 0 (div ?x3495 12))) 1) 400))))
 (let ((?x493 (+ (+ (- (+ (+ ?x689 ?x543) (- ?x213 1)) 730179) 0) 730179)))
 (let ((?x874 (mod ?x493 146097)))
 (let ((?x2641 (div ?x874 36524)))
 (let ((?x1815 (ite (<= 4 ?x2641) 3 ?x2641)))
 (let ((?x3283 (- ?x874 (* ?x1815 36524))))
 (let ((?x455 (mod ?x3283 1461)))
 (let ((?x2508 (div ?x455 365)))
 (let ((?x372 (ite (<= 4 ?x2508) 3 ?x2508)))
 (let ((?x912 (+ (+ (* (div ?x493 146097) 400) (* ?x1815 100)) (* (div ?x3283 1461) 4))))
 (let ((?x585 (+ (+ ?x912 ?x372) 1)))
 (let (($x1693 (or (and (= (mod ?x585 4) 0) (and (distinct (mod ?x585 100) 0) true)) (= (mod ?x585 400) 0))))
 (let ((?x2190 (ite $x1693 31 31)))
 (let ((?x1259 (- ?x455 (* ?x372 365))))
 (let (($x1770 (>= ?x1259 ?x2190)))
 (let ((?x3140 (ite $x1693 60 59)))
 (let (($x2477 (>= ?x1259 ?x3140)))
 (let ((?x2061 (ite $x1693 91 90)))
 (let (($x2950 (>= ?x1259 ?x2061)))
 (let ((?x1040 (ite $x1693 121 120)))
 (let (($x2197 (>= ?x1259 ?x1040)))
 (let ((?x2495 (ite $x2197 5 (ite $x2950 4 (ite $x2477 3 (ite $x1770 2 1))))))
 (let ((?x3017 (ite $x1693 152 151)))
 (let (($x503 (>= ?x1259 ?x3017)))
 (let ((?x2564 (ite $x1693 182 181)))
 (let (($x1088 (>= ?x1259 ?x2564)))
 (let ((?x1000 (ite $x1693 213 212)))
 (let (($x432 (>= ?x1259 ?x1000)))
 (let ((?x2934 (ite $x1693 244 243)))
 (let (($x1625 (>= ?x1259 ?x2934)))
 (let ((?x643 (ite $x1625 9 (ite $x432 8 (ite $x1088 7 (ite $x503 6 ?x2495))))))
 (let ((?x2378 (ite $x1693 274 273)))
 (let (($x3110 (>= ?x1259 ?x2378)))
 (let ((?x3627 (ite $x1693 305 304)))
 (let (($x1431 (>= ?x1259 ?x3627)))
 (let ((?x3236 (ite $x1693 335 334)))
 (let (($x2814 (>= ?x1259 ?x3236)))
 (let (($x2213 (= 0 0)))
 (let ((?x1250 (ite $x2213 ?x343 (ite $x2814 12 (ite $x1431 11 (ite $x3110 10 ?x643))))))
 (= x_plus_month ?x1250))))))))))))))))))))))))))))))))))))))))))))))))))))))))))))))))))))))))))))))))))))))))))))))))))))))
(assert
 (let ((?x530 (+ x_epoch 730179)))
 (let ((?x467 (mod ?x530 146097)))
 (let ((?x880 (div ?x467 36524)))
 (let ((?x518 (ite (<= 4 ?x880) 3 ?x880)))
 (let ((?x910 (- ?x467 (* ?x518 36524))))
 (let ((?x696 (mod ?x910 1461)))
 (let ((?x777 (div ?x696 365)))
 (let ((?x350 (ite (<= 4 ?x777) 3 ?x777)))
 (let ((?x641 (+ (+ (* (div ?x530 146097) 400) (* ?x518 100)) (* (div ?x910 1461) 4))))
 (let ((?x640 (+ (+ ?x641 ?x350) 1)))
 (let (($x352 (or (and (= (mod ?x640 4) 0) (and (distinct (mod ?x640 100) 0) true)) (= (mod ?x640 400) 0))))
 (let ((?x441 (- ?x696 (* ?x350 365))))
 (let ((?x705 (ite $x352 31 31)))
 (let (($x580 (>= ?x441 ?x705)))
 (let ((?x615 (ite $x580 (+ (- ?x441 ?x705) 1) (+ (- ?x441 (ite $x352 0 0)) 1))))
 (let ((?x451 (ite $x352 60 59)))
 (let (($x339 (>= ?x441 ?x451)))
 (let ((?x889 (ite $x352 91 90)))
 (let (($x266 (>= ?x441 ?x889)))
 (let ((?x524 (ite $x266 (+ (- ?x441 ?x889) 1) (ite $x339 (+ (- ?x441 ?x451) 1) ?x615))))
 (let ((?x758 (ite $x352 121 120)))
 (let (($x2982 (>= ?x441 ?x758)))
 (let ((?x675 (ite $x352 152 151)))
 (let (($x3136 (>= ?x441 ?x675)))
 (let ((?x586 (ite $x3136 (+ (- ?x441 ?x675) 1) (ite $x2982 (+ (- ?x441 ?x758) 1) ?x524))))
 (let ((?x2351 (ite $x352 182 181)))
 (let (($x2212 (>= ?x441 ?x2351)))
 (let ((?x1900 (ite $x352 213 212)))
 (let (($x459 (>= ?x441 ?x1900)))
 (let ((?x379 (ite $x459 (+ (- ?x441 ?x1900) 1) (ite $x2212 (+ (- ?x441 ?x2351) 1) ?x586))))
 (let ((?x779 (ite $x352 244 243)))
 (let (($x891 (>= ?x441 ?x779)))
 (let ((?x783 (ite $x352 274 273)))
 (let (($x521 (>= ?x441 ?x783)))
 (let ((?x938 (ite $x521 (+ (- ?x441 ?x783) 1) (ite $x891 (+ (- ?x441 ?x779) 1) ?x379))))
 (let ((?x865 (ite $x352 305 304)))
 (let (($x623 (>= ?x441 ?x865)))
 (let ((?x297 (ite $x352 335 334)))
 (let (($x693 (>= ?x441 ?x297)))
 (let ((?x688 (ite $x693 (+ (- ?x441 ?x297) 1) (ite $x623 (+ (- ?x441 ?x865) 1) ?x938))))
 (let ((?x800 (+ (* 0 12) 1)))
 (let ((?x856 (ite $x2982 5 (ite $x266 4 (ite $x339 3 (ite $x580 2 1))))))
 (let ((?x525 (ite $x891 9 (ite $x459 8 (ite $x2212 7 (ite $x3136 6 ?x856))))))
 (let ((?x578 (ite $x693 12 (ite $x623 11 (ite $x521 10 ?x525)))))
 (let ((?x2988 (+ ?x578 ?x800)))
 (let ((?x3495 (- ?x2988 1)))
 (let ((?x343 (+ (mod ?x3495 12) 1)))
 (let ((?x1963 (ite (or (= ?x343 4) (= ?x343 6) (= ?x343 9) (= ?x343 11)) 30 31)))
 (let (($x909 (and (= (mod (+ ?x640 (+ 0 (div ?x3495 12))) 4) 0) (and (distinct (mod (+ ?x640 (+ 0 (div ?x3495 12))) 100) 0) true))))
 (let (($x2168 (or $x909 (= (mod (+ ?x640 (+ 0 (div ?x3495 12))) 400) 0))))
 (let ((?x317 (ite (= ?x343 2) (ite $x2168 29 28) ?x1963)))
 (let (($x486 (> 1 ?x688)))
 (let ((?x469 (ite $x486 1 (ite (> ?x688 ?x317) ?x317 ?x688))))
 (let ((?x213 (ite (> 1 ?x469) 1 (ite (> ?x469 ?x317) ?x317 ?x469))))
 (let ((?x3297 (ite (= 2 ?x343) (ite $x2168 31 31) (ite (= 1 ?x343) (ite $x2168 0 0) 0))))
 (let ((?x3214 (ite (= 4 ?x343) (ite $x2168 91 90) (ite (= 3 ?x343) (ite $x2168 60 59) ?x3297))))
 (let ((?x327 (ite (= 6 ?x343) (ite $x2168 152 151) (ite (= 5 ?x343) (ite $x2168 121 120) ?x3214))))
 (let ((?x622 (ite (= 8 ?x343) (ite $x2168 213 212) (ite (= 7 ?x343) (ite $x2168 182 181) ?x327))))
 (let ((?x724 (ite (= 10 ?x343) (ite $x2168 274 273) (ite (= 9 ?x343) (ite $x2168 244 243) ?x622))))
 (let ((?x543 (ite (= 12 ?x343) (ite $x2168 335 334) (ite (= 11 ?x343) (ite $x2168 305 304) ?x724))))
 (let ((?x537 (+ (* 365 (- (+ ?x640 (+ 0 (div ?x3495 12))) 1)) (div (- (+ ?x640 (+ 0 (div ?x3495 12))) 1) 4))))
 (let ((?x689 (+ (- ?x537 (div (- (+ ?x640 (+ 0 (div ?x3495 12))) 1) 100)) (div (- (+ ?x640 (+ 0 (div ?x3495 12))) 1) 400))))
 (let ((?x493 (+ (+ (- (+ (+ ?x689 ?x543) (- ?x213 1)) 730179) 0) 730179)))
 (let ((?x874 (mod ?x493 146097)))
 (let ((?x2641 (div ?x874 36524)))
 (let ((?x1815 (ite (<= 4 ?x2641) 3 ?x2641)))
 (let ((?x3283 (- ?x874 (* ?x1815 36524))))
 (let ((?x455 (mod ?x3283 1461)))
 (let ((?x2508 (div ?x455 365)))
 (let ((?x372 (ite (<= 4 ?x2508) 3 ?x2508)))
 (let ((?x912 (+ (+ (* (div ?x493 146097) 400) (* ?x1815 100)) (* (div ?x3283 1461) 4))))
 (let ((?x585 (+ (+ ?x912 ?x372) 1)))
 (let (($x1693 (or (and (= (mod ?x585 4) 0) (and (distinct (mod ?x585 100) 0) true)) (= (mod ?x585 400) 0))))
 (let ((?x1259 (- ?x455 (* ?x372 365))))
 (let ((?x2190 (ite $x1693 31 31)))
 (let (($x1770 (>= ?x1259 ?x2190)))
 (let ((?x1295 (ite $x1770 (+ (- ?x1259 ?x2190) 1) (+ (- ?x1259 (ite $x1693 0 0)) 1))))
 (let ((?x3140 (ite $x1693 60 59)))
 (let (($x2477 (>= ?x1259 ?x3140)))
 (let ((?x2061 (ite $x1693 91 90)))
 (let (($x2950 (>= ?x1259 ?x2061)))
 (let ((?x577 (ite $x2950 (+ (- ?x1259 ?x2061) 1) (ite $x2477 (+ (- ?x1259 ?x3140) 1) ?x1295))))
 (let ((?x1040 (ite $x1693 121 120)))
 (let (($x2197 (>= ?x1259 ?x1040)))
 (let ((?x3017 (ite $x1693 152 151)))
 (let (($x503 (>= ?x1259 ?x3017)))
 (let ((?x897 (ite $x503 (+ (- ?x1259 ?x3017) 1) (ite $x2197 (+ (- ?x1259 ?x1040) 1) ?x577))))
 (let ((?x2564 (ite $x1693 182 181)))
 (let (($x1088 (>= ?x1259 ?x2564)))
 (let ((?x1000 (ite $x1693 213 212)))
 (let (($x432 (>= ?x1259 ?x1000)))
 (let ((?x301 (ite $x432 (+ (- ?x1259 ?x1000) 1) (ite $x1088 (+ (- ?x1259 ?x2564) 1) ?x897))))
 (let ((?x2934 (ite $x1693 244 243)))
 (let (($x1625 (>= ?x1259 ?x2934)))
 (let ((?x2378 (ite $x1693 274 273)))
 (let (($x3110 (>= ?x1259 ?x2378)))
 (let ((?x1544 (ite $x3110 (+ (- ?x1259 ?x2378) 1) (ite $x1625 (+ (- ?x1259 ?x2934) 1) ?x301))))
 (let ((?x3627 (ite $x1693 305 304)))
 (let (($x1431 (>= ?x1259 ?x3627)))
 (let ((?x3236 (ite $x1693 335 334)))
 (let (($x2814 (>= ?x1259 ?x3236)))
 (let ((?x712 (ite $x2814 (+ (- ?x1259 ?x3236) 1) (ite $x1431 (+ (- ?x1259 ?x3627) 1) ?x1544))))
 (let (($x2213 (= 0 0)))
 (let ((?x1933 (ite $x2213 ?x213 ?x712)))
 (= x_plus_day ?x1933))))))))))))))))))))))))))))))))))))))))))))))))))))))))))))))))))))))))))))))))))))))))))))))))))))))))))
(assert
 (= x_plus_epoch 7304))
(assert
 (>= y_plus_epoch (- 36584)))
(assert
 (<= y_plus_epoch 36829))
(assert
 (let (($x1907 (= y_plus_month 11)))
 (let (($x1280 (= y_plus_month 9)))
 (let (($x2167 (= y_plus_month 6)))
 (let (($x3601 (= y_plus_month 4)))
 (let ((?x1710 (ite (or $x3601 $x2167 $x1280 $x1907) 30 31)))
 (let (($x3090 (= (mod y_plus_year 400) 0)))
 (let (($x1364 (= (mod y_plus_year 4) 0)))
 (let (($x1990 (or (and $x1364 (and (distinct (mod y_plus_year 100) 0) true)) $x3090)))
 (let (($x1519 (= y_plus_month 2)))
 (let (($x2918 (>= y_plus_day 1)))
 (let (($x3593 (<= y_plus_month 12)))
 (let (($x2353 (>= y_plus_month 1)))
 (let (($x904 (<= y_plus_year 2100)))
 (let (($x2436 (>= y_plus_year 1900)))
 (and $x2436 $x904 $x2353 $x3593 $x2918 (<= y_plus_day (ite $x1519 (ite $x1990 29 28) ?x1710))))))))))))))))))
(assert
 (let (($x3090 (= (mod y_plus_year 400) 0)))
 (let (($x1364 (= (mod y_plus_year 4) 0)))
 (let (($x1990 (or (and $x1364 (and (distinct (mod y_plus_year 100) 0) true)) $x3090)))
 (let ((?x1522 (ite (= 2 y_plus_month) (ite $x1990 31 31) (ite (= 1 y_plus_month) (ite $x1990 0 0) 0))))
 (let ((?x786 (ite (= 4 y_plus_month) (ite $x1990 91 90) (ite (= 3 y_plus_month) (ite $x1990 60 59) ?x1522))))
 (let ((?x2435 (ite (= 6 y_plus_month) (ite $x1990 152 151) (ite (= 5 y_plus_month) (ite $x1990 121 120) ?x786))))
 (let ((?x1585 (ite (= 8 y_plus_month) (ite $x1990 213 212) (ite (= 7 y_plus_month) (ite $x1990 182 181) ?x2435))))
 (let ((?x662 (ite (= 10 y_plus_month) (ite $x1990 274 273) (ite (= 9 y_plus_month) (ite $x1990 244 243) ?x1585))))
 (let ((?x1654 (ite (= 12 y_plus_month) (ite $x1990 335 334) (ite (= 11 y_plus_month) (ite $x1990 305 304) ?x662))))
 (let ((?x3290 (+ (* 365 (- y_plus_year 1)) (div (- y_plus_year 1) 4))))
 (let ((?x2689 (+ (- ?x3290 (div (- y_plus_year 1) 100)) (div (- y_plus_year 1) 400))))
 (= y_plus_epoch (- (+ (+ ?x2689 ?x1654) (- y_plus_day 1)) 730179))))))))))))))
(assert
 (let ((?x1494 (+ y_epoch 730179)))
 (let ((?x1590 (mod ?x1494 146097)))
 (let ((?x3425 (div ?x1590 36524)))
 (let ((?x3644 (ite (<= 4 ?x3425) 3 ?x3425)))
 (let ((?x1747 (- ?x1590 (* ?x3644 36524))))
 (let ((?x2240 (mod ?x1747 1461)))
 (let ((?x2231 (div ?x2240 365)))
 (let ((?x357 (ite (<= 4 ?x2231) 3 ?x2231)))
 (let ((?x2267 (+ (+ (* (div ?x1494 146097) 400) (* ?x3644 100)) (* (div ?x1747 1461) 4))))
 (let ((?x670 (+ (+ ?x2267 ?x357) 1)))
 (let (($x2961 (or (and (= (mod ?x670 4) 0) (and (distinct (mod ?x670 100) 0) true)) (= (mod ?x670 400) 0))))
 (let ((?x863 (- ?x2240 (* ?x357 365))))
 (let ((?x1355 (ite $x2961 31 31)))
 (let (($x2991 (>= ?x863 ?x1355)))
 (let ((?x1744 (ite $x2991 (+ (- ?x863 ?x1355) 1) (+ (- ?x863 (ite $x2961 0 0)) 1))))
 (let ((?x2874 (ite $x2961 60 59)))
 (let (($x2971 (>= ?x863 ?x2874)))
 (let ((?x1573 (ite $x2961 91 90)))
 (let (($x791 (>= ?x863 ?x1573)))
 (let ((?x3235 (ite $x791 (+ (- ?x863 ?x1573) 1) (ite $x2971 (+ (- ?x863 ?x2874) 1) ?x1744))))
 (let ((?x1324 (ite $x2961 121 120)))
 (let (($x2866 (>= ?x863 ?x1324)))
 (let ((?x2051 (ite $x2961 152 151)))
 (let (($x3554 (>= ?x863 ?x2051)))
 (let ((?x1755 (ite $x3554 (+ (- ?x863 ?x2051) 1) (ite $x2866 (+ (- ?x863 ?x1324) 1) ?x3235))))
 (let ((?x551 (ite $x2961 182 181)))
 (let (($x1591 (>= ?x863 ?x551)))
 (let ((?x514 (ite $x2961 213 212)))
 (let (($x1445 (>= ?x863 ?x514)))
 (let ((?x3437 (ite $x1445 (+ (- ?x863 ?x514) 1) (ite $x1591 (+ (- ?x863 ?x551) 1) ?x1755))))
 (let ((?x3057 (ite $x2961 244 243)))
 (let (($x1732 (>= ?x863 ?x3057)))
 (let ((?x1705 (ite $x2961 274 273)))
 (let (($x1640 (>= ?x863 ?x1705)))
 (let ((?x3370 (ite $x1640 (+ (- ?x863 ?x1705) 1) (ite $x1732 (+ (- ?x863 ?x3057) 1) ?x3437))))
 (let ((?x1425 (ite $x2961 305 304)))
 (let (($x1031 (>= ?x863 ?x1425)))
 (let ((?x2666 (ite $x2961 335 334)))
 (let (($x3455 (>= ?x863 ?x2666)))
 (let ((?x769 (ite $x3455 (+ (- ?x863 ?x2666) 1) (ite $x1031 (+ (- ?x863 ?x1425) 1) ?x3370))))
 (let ((?x800 (+ (* 0 12) 1)))
 (let ((?x1111 (ite $x2866 5 (ite $x791 4 (ite $x2971 3 (ite $x2991 2 1))))))
 (let ((?x2200 (ite $x1732 9 (ite $x1445 8 (ite $x1591 7 (ite $x3554 6 ?x1111))))))
 (let ((?x762 (ite $x3455 12 (ite $x1031 11 (ite $x1640 10 ?x2200)))))
 (let ((?x3422 (+ ?x762 ?x800)))
 (let ((?x2594 (- ?x3422 1)))
 (let ((?x3461 (+ (mod ?x2594 12) 1)))
 (let ((?x419 (ite (or (= ?x3461 4) (= ?x3461 6) (= ?x3461 9) (= ?x3461 11)) 30 31)))
 (let (($x984 (and (= (mod (+ ?x670 (+ 0 (div ?x2594 12))) 4) 0) (and (distinct (mod (+ ?x670 (+ 0 (div ?x2594 12))) 100) 0) true))))
 (let (($x1884 (or $x984 (= (mod (+ ?x670 (+ 0 (div ?x2594 12))) 400) 0))))
 (let ((?x3003 (ite (= ?x3461 2) (ite $x1884 29 28) ?x419)))
 (let ((?x3594 (ite (> 1 ?x769) 1 (ite (> ?x769 ?x3003) ?x3003 ?x769))))
 (let ((?x1394 (ite (> 1 ?x3594) 1 (ite (> ?x3594 ?x3003) ?x3003 ?x3594))))
 (let ((?x599 (ite (= 2 ?x3461) (ite $x1884 31 31) (ite (= 1 ?x3461) (ite $x1884 0 0) 0))))
 (let ((?x3245 (ite (= 4 ?x3461) (ite $x1884 91 90) (ite (= 3 ?x3461) (ite $x1884 60 59) ?x599))))
 (let ((?x1132 (ite (= 6 ?x3461) (ite $x1884 152 151) (ite (= 5 ?x3461) (ite $x1884 121 120) ?x3245))))
 (let ((?x831 (ite (= 8 ?x3461) (ite $x1884 213 212) (ite (= 7 ?x3461) (ite $x1884 182 181) ?x1132))))
 (let ((?x1216 (ite (= 10 ?x3461) (ite $x1884 274 273) (ite (= 9 ?x3461) (ite $x1884 244 243) ?x831))))
 (let ((?x1719 (ite (= 12 ?x3461) (ite $x1884 335 334) (ite (= 11 ?x3461) (ite $x1884 305 304) ?x1216))))
 (let ((?x2890 (+ (* 365 (- (+ ?x670 (+ 0 (div ?x2594 12))) 1)) (div (- (+ ?x670 (+ 0 (div ?x2594 12))) 1) 4))))
 (let ((?x2365 (+ (- ?x2890 (div (- (+ ?x670 (+ 0 (div ?x2594 12))) 1) 100)) (div (- (+ ?x670 (+ 0 (div ?x2594 12))) 1) 400))))
 (let ((?x3108 (+ (+ (- (+ (+ ?x2365 ?x1719) (- ?x1394 1)) 730179) 0) 730179)))
 (let ((?x2519 (mod ?x3108 146097)))
 (let ((?x1150 (div ?x2519 36524)))
 (let ((?x2609 (ite (<= 4 ?x1150) 3 ?x1150)))
 (let ((?x2942 (- ?x2519 (* ?x2609 36524))))
 (let ((?x2797 (mod ?x2942 1461)))
 (let ((?x502 (div ?x2797 365)))
 (let ((?x1975 (ite (<= 4 ?x502) 3 ?x502)))
 (let ((?x1174 (+ (+ (* (div ?x3108 146097) 400) (* ?x2609 100)) (* (div ?x2942 1461) 4))))
 (let ((?x310 (+ (+ ?x1174 ?x1975) 1)))
 (let ((?x969 (+ 0 (div ?x2594 12))))
 (let ((?x2102 (+ ?x670 ?x969)))
 (let (($x2213 (= 0 0)))
 (let ((?x1284 (ite $x2213 ?x2102 ?x310)))
 (= y_plus_year ?x1284)))))))))))))))))))))))))))))))))))))))))))))))))))))))))))))))))))))))))))))
(assert
 (let ((?x1494 (+ y_epoch 730179)))
 (let ((?x1590 (mod ?x1494 146097)))
 (let ((?x3425 (div ?x1590 36524)))
 (let ((?x3644 (ite (<= 4 ?x3425) 3 ?x3425)))
 (let ((?x1747 (- ?x1590 (* ?x3644 36524))))
 (let ((?x2240 (mod ?x1747 1461)))
 (let ((?x2231 (div ?x2240 365)))
 (let ((?x357 (ite (<= 4 ?x2231) 3 ?x2231)))
 (let ((?x2267 (+ (+ (* (div ?x1494 146097) 400) (* ?x3644 100)) (* (div ?x1747 1461) 4))))
 (let ((?x670 (+ (+ ?x2267 ?x357) 1)))
 (let (($x2961 (or (and (= (mod ?x670 4) 0) (and (distinct (mod ?x670 100) 0) true)) (= (mod ?x670 400) 0))))
 (let ((?x863 (- ?x2240 (* ?x357 365))))
 (let ((?x1355 (ite $x2961 31 31)))
 (let (($x2991 (>= ?x863 ?x1355)))
 (let ((?x1744 (ite $x2991 (+ (- ?x863 ?x1355) 1) (+ (- ?x863 (ite $x2961 0 0)) 1))))
 (let ((?x2874 (ite $x2961 60 59)))
 (let (($x2971 (>= ?x863 ?x2874)))
 (let ((?x1573 (ite $x2961 91 90)))
 (let (($x791 (>= ?x863 ?x1573)))
 (let ((?x3235 (ite $x791 (+ (- ?x863 ?x1573) 1) (ite $x2971 (+ (- ?x863 ?x2874) 1) ?x1744))))
 (let ((?x1324 (ite $x2961 121 120)))
 (let (($x2866 (>= ?x863 ?x1324)))
 (let ((?x2051 (ite $x2961 152 151)))
 (let (($x3554 (>= ?x863 ?x2051)))
 (let ((?x1755 (ite $x3554 (+ (- ?x863 ?x2051) 1) (ite $x2866 (+ (- ?x863 ?x1324) 1) ?x3235))))
 (let ((?x551 (ite $x2961 182 181)))
 (let (($x1591 (>= ?x863 ?x551)))
 (let ((?x514 (ite $x2961 213 212)))
 (let (($x1445 (>= ?x863 ?x514)))
 (let ((?x3437 (ite $x1445 (+ (- ?x863 ?x514) 1) (ite $x1591 (+ (- ?x863 ?x551) 1) ?x1755))))
 (let ((?x3057 (ite $x2961 244 243)))
 (let (($x1732 (>= ?x863 ?x3057)))
 (let ((?x1705 (ite $x2961 274 273)))
 (let (($x1640 (>= ?x863 ?x1705)))
 (let ((?x3370 (ite $x1640 (+ (- ?x863 ?x1705) 1) (ite $x1732 (+ (- ?x863 ?x3057) 1) ?x3437))))
 (let ((?x1425 (ite $x2961 305 304)))
 (let (($x1031 (>= ?x863 ?x1425)))
 (let ((?x2666 (ite $x2961 335 334)))
 (let (($x3455 (>= ?x863 ?x2666)))
 (let ((?x769 (ite $x3455 (+ (- ?x863 ?x2666) 1) (ite $x1031 (+ (- ?x863 ?x1425) 1) ?x3370))))
 (let ((?x800 (+ (* 0 12) 1)))
 (let ((?x1111 (ite $x2866 5 (ite $x791 4 (ite $x2971 3 (ite $x2991 2 1))))))
 (let ((?x2200 (ite $x1732 9 (ite $x1445 8 (ite $x1591 7 (ite $x3554 6 ?x1111))))))
 (let ((?x762 (ite $x3455 12 (ite $x1031 11 (ite $x1640 10 ?x2200)))))
 (let ((?x3422 (+ ?x762 ?x800)))
 (let ((?x2594 (- ?x3422 1)))
 (let ((?x3461 (+ (mod ?x2594 12) 1)))
 (let ((?x419 (ite (or (= ?x3461 4) (= ?x3461 6) (= ?x3461 9) (= ?x3461 11)) 30 31)))
 (let (($x984 (and (= (mod (+ ?x670 (+ 0 (div ?x2594 12))) 4) 0) (and (distinct (mod (+ ?x670 (+ 0 (div ?x2594 12))) 100) 0) true))))
 (let (($x1884 (or $x984 (= (mod (+ ?x670 (+ 0 (div ?x2594 12))) 400) 0))))
 (let ((?x3003 (ite (= ?x3461 2) (ite $x1884 29 28) ?x419)))
 (let ((?x3594 (ite (> 1 ?x769) 1 (ite (> ?x769 ?x3003) ?x3003 ?x769))))
 (let ((?x1394 (ite (> 1 ?x3594) 1 (ite (> ?x3594 ?x3003) ?x3003 ?x3594))))
 (let ((?x599 (ite (= 2 ?x3461) (ite $x1884 31 31) (ite (= 1 ?x3461) (ite $x1884 0 0) 0))))
 (let ((?x3245 (ite (= 4 ?x3461) (ite $x1884 91 90) (ite (= 3 ?x3461) (ite $x1884 60 59) ?x599))))
 (let ((?x1132 (ite (= 6 ?x3461) (ite $x1884 152 151) (ite (= 5 ?x3461) (ite $x1884 121 120) ?x3245))))
 (let ((?x831 (ite (= 8 ?x3461) (ite $x1884 213 212) (ite (= 7 ?x3461) (ite $x1884 182 181) ?x1132))))
 (let ((?x1216 (ite (= 10 ?x3461) (ite $x1884 274 273) (ite (= 9 ?x3461) (ite $x1884 244 243) ?x831))))
 (let ((?x1719 (ite (= 12 ?x3461) (ite $x1884 335 334) (ite (= 11 ?x3461) (ite $x1884 305 304) ?x1216))))
 (let ((?x2890 (+ (* 365 (- (+ ?x670 (+ 0 (div ?x2594 12))) 1)) (div (- (+ ?x670 (+ 0 (div ?x2594 12))) 1) 4))))
 (let ((?x2365 (+ (- ?x2890 (div (- (+ ?x670 (+ 0 (div ?x2594 12))) 1) 100)) (div (- (+ ?x670 (+ 0 (div ?x2594 12))) 1) 400))))
 (let ((?x3108 (+ (+ (- (+ (+ ?x2365 ?x1719) (- ?x1394 1)) 730179) 0) 730179)))
 (let ((?x2519 (mod ?x3108 146097)))
 (let ((?x1150 (div ?x2519 36524)))
 (let ((?x2609 (ite (<= 4 ?x1150) 3 ?x1150)))
 (let ((?x2942 (- ?x2519 (* ?x2609 36524))))
 (let ((?x2797 (mod ?x2942 1461)))
 (let ((?x502 (div ?x2797 365)))
 (let ((?x1975 (ite (<= 4 ?x502) 3 ?x502)))
 (let ((?x1174 (+ (+ (* (div ?x3108 146097) 400) (* ?x2609 100)) (* (div ?x2942 1461) 4))))
 (let ((?x310 (+ (+ ?x1174 ?x1975) 1)))
 (let (($x3233 (or (and (= (mod ?x310 4) 0) (and (distinct (mod ?x310 100) 0) true)) (= (mod ?x310 400) 0))))
 (let ((?x3294 (ite $x3233 31 31)))
 (let ((?x2967 (- ?x2797 (* ?x1975 365))))
 (let (($x1390 (>= ?x2967 ?x3294)))
 (let ((?x1459 (ite $x3233 60 59)))
 (let (($x2932 (>= ?x2967 ?x1459)))
 (let ((?x1291 (ite $x3233 91 90)))
 (let (($x1217 (>= ?x2967 ?x1291)))
 (let ((?x1227 (ite $x3233 121 120)))
 (let (($x408 (>= ?x2967 ?x1227)))
 (let ((?x3170 (ite $x408 5 (ite $x1217 4 (ite $x2932 3 (ite $x1390 2 1))))))
 (let ((?x1535 (ite $x3233 152 151)))
 (let (($x1052 (>= ?x2967 ?x1535)))
 (let ((?x2273 (ite $x3233 182 181)))
 (let (($x1856 (>= ?x2967 ?x2273)))
 (let ((?x3581 (ite $x3233 213 212)))
 (let (($x1192 (>= ?x2967 ?x3581)))
 (let ((?x3004 (ite $x3233 244 243)))
 (let (($x3303 (>= ?x2967 ?x3004)))
 (let ((?x2765 (ite $x3303 9 (ite $x1192 8 (ite $x1856 7 (ite $x1052 6 ?x3170))))))
 (let ((?x2780 (ite $x3233 274 273)))
 (let (($x470 (>= ?x2967 ?x2780)))
 (let ((?x2426 (ite $x3233 305 304)))
 (let (($x1005 (>= ?x2967 ?x2426)))
 (let ((?x965 (ite $x3233 335 334)))
 (let (($x345 (>= ?x2967 ?x965)))
 (let (($x2213 (= 0 0)))
 (let ((?x1359 (ite $x2213 ?x3461 (ite $x345 12 (ite $x1005 11 (ite $x470 10 ?x2765))))))
 (= y_plus_month ?x1359)))))))))))))))))))))))))))))))))))))))))))))))))))))))))))))))))))))))))))))))))))))))))))))))))))))
(assert
 (let ((?x1494 (+ y_epoch 730179)))
 (let ((?x1590 (mod ?x1494 146097)))
 (let ((?x3425 (div ?x1590 36524)))
 (let ((?x3644 (ite (<= 4 ?x3425) 3 ?x3425)))
 (let ((?x1747 (- ?x1590 (* ?x3644 36524))))
 (let ((?x2240 (mod ?x1747 1461)))
 (let ((?x2231 (div ?x2240 365)))
 (let ((?x357 (ite (<= 4 ?x2231) 3 ?x2231)))
 (let ((?x2267 (+ (+ (* (div ?x1494 146097) 400) (* ?x3644 100)) (* (div ?x1747 1461) 4))))
 (let ((?x670 (+ (+ ?x2267 ?x357) 1)))
 (let (($x2961 (or (and (= (mod ?x670 4) 0) (and (distinct (mod ?x670 100) 0) true)) (= (mod ?x670 400) 0))))
 (let ((?x863 (- ?x2240 (* ?x357 365))))
 (let ((?x1355 (ite $x2961 31 31)))
 (let (($x2991 (>= ?x863 ?x1355)))
 (let ((?x1744 (ite $x2991 (+ (- ?x863 ?x1355) 1) (+ (- ?x863 (ite $x2961 0 0)) 1))))
 (let ((?x2874 (ite $x2961 60 59)))
 (let (($x2971 (>= ?x863 ?x2874)))
 (let ((?x1573 (ite $x2961 91 90)))
 (let (($x791 (>= ?x863 ?x1573)))
 (let ((?x3235 (ite $x791 (+ (- ?x863 ?x1573) 1) (ite $x2971 (+ (- ?x863 ?x2874) 1) ?x1744))))
 (let ((?x1324 (ite $x2961 121 120)))
 (let (($x2866 (>= ?x863 ?x1324)))
 (let ((?x2051 (ite $x2961 152 151)))
 (let (($x3554 (>= ?x863 ?x2051)))
 (let ((?x1755 (ite $x3554 (+ (- ?x863 ?x2051) 1) (ite $x2866 (+ (- ?x863 ?x1324) 1) ?x3235))))
 (let ((?x551 (ite $x2961 182 181)))
 (let (($x1591 (>= ?x863 ?x551)))
 (let ((?x514 (ite $x2961 213 212)))
 (let (($x1445 (>= ?x863 ?x514)))
 (let ((?x3437 (ite $x1445 (+ (- ?x863 ?x514) 1) (ite $x1591 (+ (- ?x863 ?x551) 1) ?x1755))))
 (let ((?x3057 (ite $x2961 244 243)))
 (let (($x1732 (>= ?x863 ?x3057)))
 (let ((?x1705 (ite $x2961 274 273)))
 (let (($x1640 (>= ?x863 ?x1705)))
 (let ((?x3370 (ite $x1640 (+ (- ?x863 ?x1705) 1) (ite $x1732 (+ (- ?x863 ?x3057) 1) ?x3437))))
 (let ((?x1425 (ite $x2961 305 304)))
 (let (($x1031 (>= ?x863 ?x1425)))
 (let ((?x2666 (ite $x2961 335 334)))
 (let (($x3455 (>= ?x863 ?x2666)))
 (let ((?x769 (ite $x3455 (+ (- ?x863 ?x2666) 1) (ite $x1031 (+ (- ?x863 ?x1425) 1) ?x3370))))
 (let ((?x800 (+ (* 0 12) 1)))
 (let ((?x1111 (ite $x2866 5 (ite $x791 4 (ite $x2971 3 (ite $x2991 2 1))))))
 (let ((?x2200 (ite $x1732 9 (ite $x1445 8 (ite $x1591 7 (ite $x3554 6 ?x1111))))))
 (let ((?x762 (ite $x3455 12 (ite $x1031 11 (ite $x1640 10 ?x2200)))))
 (let ((?x3422 (+ ?x762 ?x800)))
 (let ((?x2594 (- ?x3422 1)))
 (let ((?x3461 (+ (mod ?x2594 12) 1)))
 (let ((?x419 (ite (or (= ?x3461 4) (= ?x3461 6) (= ?x3461 9) (= ?x3461 11)) 30 31)))
 (let (($x984 (and (= (mod (+ ?x670 (+ 0 (div ?x2594 12))) 4) 0) (and (distinct (mod (+ ?x670 (+ 0 (div ?x2594 12))) 100) 0) true))))
 (let (($x1884 (or $x984 (= (mod (+ ?x670 (+ 0 (div ?x2594 12))) 400) 0))))
 (let ((?x3003 (ite (= ?x3461 2) (ite $x1884 29 28) ?x419)))
 (let ((?x3594 (ite (> 1 ?x769) 1 (ite (> ?x769 ?x3003) ?x3003 ?x769))))
 (let ((?x1394 (ite (> 1 ?x3594) 1 (ite (> ?x3594 ?x3003) ?x3003 ?x3594))))
 (let ((?x599 (ite (= 2 ?x3461) (ite $x1884 31 31) (ite (= 1 ?x3461) (ite $x1884 0 0) 0))))
 (let ((?x3245 (ite (= 4 ?x3461) (ite $x1884 91 90) (ite (= 3 ?x3461) (ite $x1884 60 59) ?x599))))
 (let ((?x1132 (ite (= 6 ?x3461) (ite $x1884 152 151) (ite (= 5 ?x3461) (ite $x1884 121 120) ?x3245))))
 (let ((?x831 (ite (= 8 ?x3461) (ite $x1884 213 212) (ite (= 7 ?x3461) (ite $x1884 182 181) ?x1132))))
 (let ((?x1216 (ite (= 10 ?x3461) (ite $x1884 274 273) (ite (= 9 ?x3461) (ite $x1884 244 243) ?x831))))
 (let ((?x1719 (ite (= 12 ?x3461) (ite $x1884 335 334) (ite (= 11 ?x3461) (ite $x1884 305 304) ?x1216))))
 (let ((?x2890 (+ (* 365 (- (+ ?x670 (+ 0 (div ?x2594 12))) 1)) (div (- (+ ?x670 (+ 0 (div ?x2594 12))) 1) 4))))
 (let ((?x2365 (+ (- ?x2890 (div (- (+ ?x670 (+ 0 (div ?x2594 12))) 1) 100)) (div (- (+ ?x670 (+ 0 (div ?x2594 12))) 1) 400))))
 (let ((?x3108 (+ (+ (- (+ (+ ?x2365 ?x1719) (- ?x1394 1)) 730179) 0) 730179)))
 (let ((?x2519 (mod ?x3108 146097)))
 (let ((?x1150 (div ?x2519 36524)))
 (let ((?x2609 (ite (<= 4 ?x1150) 3 ?x1150)))
 (let ((?x2942 (- ?x2519 (* ?x2609 36524))))
 (let ((?x2797 (mod ?x2942 1461)))
 (let ((?x502 (div ?x2797 365)))
 (let ((?x1975 (ite (<= 4 ?x502) 3 ?x502)))
 (let ((?x1174 (+ (+ (* (div ?x3108 146097) 400) (* ?x2609 100)) (* (div ?x2942 1461) 4))))
 (let ((?x310 (+ (+ ?x1174 ?x1975) 1)))
 (let (($x3233 (or (and (= (mod ?x310 4) 0) (and (distinct (mod ?x310 100) 0) true)) (= (mod ?x310 400) 0))))
 (let ((?x2967 (- ?x2797 (* ?x1975 365))))
 (let ((?x3294 (ite $x3233 31 31)))
 (let (($x1390 (>= ?x2967 ?x3294)))
 (let ((?x1564 (ite $x1390 (+ (- ?x2967 ?x3294) 1) (+ (- ?x2967 (ite $x3233 0 0)) 1))))
 (let ((?x1459 (ite $x3233 60 59)))
 (let (($x2932 (>= ?x2967 ?x1459)))
 (let ((?x1291 (ite $x3233 91 90)))
 (let (($x1217 (>= ?x2967 ?x1291)))
 (let ((?x3374 (ite $x1217 (+ (- ?x2967 ?x1291) 1) (ite $x2932 (+ (- ?x2967 ?x1459) 1) ?x1564))))
 (let ((?x1227 (ite $x3233 121 120)))
 (let (($x408 (>= ?x2967 ?x1227)))
 (let ((?x1535 (ite $x3233 152 151)))
 (let (($x1052 (>= ?x2967 ?x1535)))
 (let ((?x1268 (ite $x1052 (+ (- ?x2967 ?x1535) 1) (ite $x408 (+ (- ?x2967 ?x1227) 1) ?x3374))))
 (let ((?x2273 (ite $x3233 182 181)))
 (let (($x1856 (>= ?x2967 ?x2273)))
 (let ((?x3581 (ite $x3233 213 212)))
 (let (($x1192 (>= ?x2967 ?x3581)))
 (let ((?x2377 (ite $x1192 (+ (- ?x2967 ?x3581) 1) (ite $x1856 (+ (- ?x2967 ?x2273) 1) ?x1268))))
 (let ((?x3004 (ite $x3233 244 243)))
 (let (($x3303 (>= ?x2967 ?x3004)))
 (let ((?x2780 (ite $x3233 274 273)))
 (let (($x470 (>= ?x2967 ?x2780)))
 (let ((?x768 (ite $x470 (+ (- ?x2967 ?x2780) 1) (ite $x3303 (+ (- ?x2967 ?x3004) 1) ?x2377))))
 (let ((?x2426 (ite $x3233 305 304)))
 (let (($x1005 (>= ?x2967 ?x2426)))
 (let ((?x965 (ite $x3233 335 334)))
 (let (($x345 (>= ?x2967 ?x965)))
 (let ((?x1348 (ite $x345 (+ (- ?x2967 ?x965) 1) (ite $x1005 (+ (- ?x2967 ?x2426) 1) ?x768))))
 (let (($x2213 (= 0 0)))
 (let ((?x3240 (ite $x2213 ?x1394 ?x1348)))
 (= y_plus_day ?x3240)))))))))))))))))))))))))))))))))))))))))))))))))))))))))))))))))))))))))))))))))))))))))))))))))))))))))
(assert
 (= y_plus_epoch 6938))
(check-sat)
